NAME : tsp_59_sol.txt
COMMENT : OR-Tools Guided Local Search
TYPE : TOUR
DIMENSION : 50
COST : 5544
STATUS : ROUTING_SUCCESS
GAP : 0.00% (Reference Solution)
TOUR_SECTION
1
32
43
41
14
49
39
11
8
45
5
50
13
47
38
10
37
19
6
18
21
33
35
29
23
36
30
27
15
20
48
22
26
17
7
16
24
31
25
28
3
12
46
2
42
40
34
9
4
44
-1
